2 3 6 0 10 1 5 8 4 12 9 11 7 14 13
7 1 10 2 8 5 6 13 9 12 3 0 11 14 4
1 10 11 7 14 4 6 0 9 2 12 13 8 3 5
11 2 9 13 6 5 4 14 0 10 7 12 3 1 8
10 8 11 6 2 9 7 12 13 5 14 3 0 1 4
14 8 11 4 6 5 0 9 2 1 3 7 13 10 12
8 7 14 6 5 2 3 13 10 4 12 11 0 9 1
12 0 3 2 13 5 14 7 8 9 11 10 1 4 6
11 4 13 1 9 2 6 5 8 12 14 10 7 0 3
6 3 7 5 11 14 4 0 8 10 1 9 12 2 13
7 4 10 11 0 9 12 5 3 8 13 1 14 6 2
3 11 13 0 14 6 1 7 10 4 9 12 8 5 2
5 7 0 8 3 6 11 4 13 14 1 12 10 2 9
5 0 11 4 14 1 6 3 9 7 8 12 13 2 10
5 11 7 1 14 10 6 4 8 2 3 0 13 12 9